p cnf 120 406
c p weight 48 -1 0
c p weight -48 1 0
c p weight 50 6.12323399573676603586882014729198302312846062338790031898128063403419218957424163818359375E-17 0
c p weight -50 1 0
c p weight 51 1 0
c p weight -51 1 0
c p weight 52 -1 0
c p weight -52 1 0
c p weight 54 -1 0
c p weight -54 1 0
c p weight 57 -1 0
c p weight -57 1 0
c p weight 60 -1 0
c p weight -60 1 0
c p weight 63 -1 0
c p weight -63 1 0
c p weight 66 -1 0
c p weight -66 1 0
c p weight 69 -1 0
c p weight -69 1 0
c p weight 72 -1 0
c p weight -72 1 0
c p weight 75 -1 0
c p weight -75 1 0
c p weight 78 -1 0
c p weight -78 1 0
c p weight 81 -1 0
c p weight -81 1 0
c p weight 84 -1 0
c p weight -84 1 0
c p weight 87 -1 0
c p weight -87 1 0
c p weight 90 -1 0
c p weight -90 1 0
c p weight 93 -1 0
c p weight -93 1 0
c p weight 96 -1 0
c p weight -96 1 0
c p weight 99 -1 0
c p weight -99 1 0
c p weight 102 -1 0
c p weight -102 1 0
c p weight 105 -1 0
c p weight -105 1 0
c p weight 108 -1 0
c p weight -108 1 0
c p weight 111 -1 0
c p weight -111 1 0
c p weight 114 -1 0
c p weight -114 1 0
c p weight 117 -1 0
c p weight -117 1 0
c p weight 120 -1 0
c p weight -120 1 0
-45 0
-43 0
-41 0
-39 0
-37 0
-35 0
-33 0
-31 0
-29 0
-27 0
-25 0
-23 0
-21 0
-19 0
-17 0
-15 0
-13 0
-11 0
-9 0
-7 0
-5 0
-3 0
-1 0
47 45 -46 0
47 -45 46 0
-47 45 46 0
-47 -45 -46 0
-48 45 0
-48 46 0
48 -45 -46 0
49 -45 47 0
-49 45 47 0
-50 47 0
49 -50 -45 0
-49 -50 45 0
49 50 45 -47 0
-49 50 -45 -47 0
-51 47 0
49 -51 45 0
-49 -51 -45 0
49 51 -45 -47 0
-49 51 45 -47 0
-52 49 0
-52 47 0
-52 -45 0
52 -49 45 -47 0
53 49 -47 0
53 -49 47 0
-53 49 47 0
-53 -49 -47 0
-54 49 0
-54 47 0
54 -49 -47 0
55 49 -43 0
55 -49 43 0
-55 49 43 0
-55 -49 -43 0
56 53 -44 0
56 -53 44 0
-56 53 44 0
-56 -53 -44 0
-57 49 0
-57 44 0
-57 43 -53 0
-57 -43 53 0
57 -49 43 53 -44 0
57 -49 -43 -53 -44 0
58 55 -41 0
58 -55 41 0
-58 55 41 0
-58 -55 -41 0
59 44 -42 0
59 -44 42 0
-59 44 42 0
-59 -44 -42 0
-60 55 0
-60 42 0
-60 41 -44 0
-60 -41 44 0
60 -55 41 44 -42 0
60 -55 -41 -44 -42 0
61 58 -39 0
61 -58 39 0
-61 58 39 0
-61 -58 -39 0
62 42 -40 0
62 -42 40 0
-62 42 40 0
-62 -42 -40 0
-63 58 0
-63 40 0
-63 39 -42 0
-63 -39 42 0
63 -58 39 42 -40 0
63 -58 -39 -42 -40 0
64 61 -37 0
64 -61 37 0
-64 61 37 0
-64 -61 -37 0
65 40 -38 0
65 -40 38 0
-65 40 38 0
-65 -40 -38 0
-66 61 0
-66 38 0
-66 37 -40 0
-66 -37 40 0
66 -61 37 40 -38 0
66 -61 -37 -40 -38 0
67 64 -35 0
67 -64 35 0
-67 64 35 0
-67 -64 -35 0
68 38 -36 0
68 -38 36 0
-68 38 36 0
-68 -38 -36 0
-69 64 0
-69 36 0
-69 35 -38 0
-69 -35 38 0
69 -64 35 38 -36 0
69 -64 -35 -38 -36 0
70 67 -33 0
70 -67 33 0
-70 67 33 0
-70 -67 -33 0
71 36 -34 0
71 -36 34 0
-71 36 34 0
-71 -36 -34 0
-72 67 0
-72 34 0
-72 33 -36 0
-72 -33 36 0
72 -67 33 36 -34 0
72 -67 -33 -36 -34 0
73 70 -31 0
73 -70 31 0
-73 70 31 0
-73 -70 -31 0
74 34 -32 0
74 -34 32 0
-74 34 32 0
-74 -34 -32 0
-75 70 0
-75 32 0
-75 31 -34 0
-75 -31 34 0
75 -70 31 34 -32 0
75 -70 -31 -34 -32 0
76 73 -29 0
76 -73 29 0
-76 73 29 0
-76 -73 -29 0
77 32 -30 0
77 -32 30 0
-77 32 30 0
-77 -32 -30 0
-78 73 0
-78 30 0
-78 29 -32 0
-78 -29 32 0
78 -73 29 32 -30 0
78 -73 -29 -32 -30 0
79 76 -27 0
79 -76 27 0
-79 76 27 0
-79 -76 -27 0
80 30 -28 0
80 -30 28 0
-80 30 28 0
-80 -30 -28 0
-81 76 0
-81 28 0
-81 27 -30 0
-81 -27 30 0
81 -76 27 30 -28 0
81 -76 -27 -30 -28 0
82 79 -25 0
82 -79 25 0
-82 79 25 0
-82 -79 -25 0
83 28 -26 0
83 -28 26 0
-83 28 26 0
-83 -28 -26 0
-84 79 0
-84 26 0
-84 25 -28 0
-84 -25 28 0
84 -79 25 28 -26 0
84 -79 -25 -28 -26 0
85 82 -23 0
85 -82 23 0
-85 82 23 0
-85 -82 -23 0
86 26 -24 0
86 -26 24 0
-86 26 24 0
-86 -26 -24 0
-87 82 0
-87 24 0
-87 23 -26 0
-87 -23 26 0
87 -82 23 26 -24 0
87 -82 -23 -26 -24 0
88 85 -21 0
88 -85 21 0
-88 85 21 0
-88 -85 -21 0
89 24 -22 0
89 -24 22 0
-89 24 22 0
-89 -24 -22 0
-90 85 0
-90 22 0
-90 21 -24 0
-90 -21 24 0
90 -85 21 24 -22 0
90 -85 -21 -24 -22 0
91 88 -19 0
91 -88 19 0
-91 88 19 0
-91 -88 -19 0
92 22 -20 0
92 -22 20 0
-92 22 20 0
-92 -22 -20 0
-93 88 0
-93 20 0
-93 19 -22 0
-93 -19 22 0
93 -88 19 22 -20 0
93 -88 -19 -22 -20 0
94 91 -17 0
94 -91 17 0
-94 91 17 0
-94 -91 -17 0
95 20 -18 0
95 -20 18 0
-95 20 18 0
-95 -20 -18 0
-96 91 0
-96 18 0
-96 17 -20 0
-96 -17 20 0
96 -91 17 20 -18 0
96 -91 -17 -20 -18 0
97 94 -15 0
97 -94 15 0
-97 94 15 0
-97 -94 -15 0
98 18 -16 0
98 -18 16 0
-98 18 16 0
-98 -18 -16 0
-99 94 0
-99 16 0
-99 15 -18 0
-99 -15 18 0
99 -94 15 18 -16 0
99 -94 -15 -18 -16 0
100 97 -13 0
100 -97 13 0
-100 97 13 0
-100 -97 -13 0
101 16 -14 0
101 -16 14 0
-101 16 14 0
-101 -16 -14 0
-102 97 0
-102 14 0
-102 13 -16 0
-102 -13 16 0
102 -97 13 16 -14 0
102 -97 -13 -16 -14 0
103 100 -11 0
103 -100 11 0
-103 100 11 0
-103 -100 -11 0
104 14 -12 0
104 -14 12 0
-104 14 12 0
-104 -14 -12 0
-105 100 0
-105 12 0
-105 11 -14 0
-105 -11 14 0
105 -100 11 14 -12 0
105 -100 -11 -14 -12 0
106 103 -9 0
106 -103 9 0
-106 103 9 0
-106 -103 -9 0
107 12 -10 0
107 -12 10 0
-107 12 10 0
-107 -12 -10 0
-108 103 0
-108 10 0
-108 9 -12 0
-108 -9 12 0
108 -103 9 12 -10 0
108 -103 -9 -12 -10 0
109 106 -7 0
109 -106 7 0
-109 106 7 0
-109 -106 -7 0
110 10 -8 0
110 -10 8 0
-110 10 8 0
-110 -10 -8 0
-111 106 0
-111 8 0
-111 7 -10 0
-111 -7 10 0
111 -106 7 10 -8 0
111 -106 -7 -10 -8 0
112 109 -5 0
112 -109 5 0
-112 109 5 0
-112 -109 -5 0
113 8 -6 0
113 -8 6 0
-113 8 6 0
-113 -8 -6 0
-114 109 0
-114 6 0
-114 5 -8 0
-114 -5 8 0
114 -109 5 8 -6 0
114 -109 -5 -8 -6 0
115 112 -3 0
115 -112 3 0
-115 112 3 0
-115 -112 -3 0
116 6 -4 0
116 -6 4 0
-116 6 4 0
-116 -6 -4 0
-117 112 0
-117 4 0
-117 3 -6 0
-117 -3 6 0
117 -112 3 6 -4 0
117 -112 -3 -6 -4 0
118 115 -1 0
118 -115 1 0
-118 115 1 0
-118 -115 -1 0
119 4 -2 0
119 -4 2 0
-119 4 2 0
-119 -4 -2 0
-120 115 0
-120 2 0
-120 1 -4 0
-120 -1 4 0
120 -115 1 4 -2 0
120 -115 -1 -4 -2 0
-118 0
-115 0
-119 0
-112 0
-116 0
-109 0
-113 0
-106 0
-110 0
-103 0
-107 0
-100 0
-104 0
-97 0
-101 0
-94 0
-98 0
-91 0
-95 0
-88 0
-92 0
-85 0
-89 0
-82 0
-86 0
-79 0
-83 0
-76 0
-80 0
-73 0
-77 0
-70 0
-74 0
-67 0
-71 0
-64 0
-68 0
-61 0
-65 0
-58 0
-62 0
-55 0
-59 0
-49 0
-56 0
